%Pal nprocs 6 end
%MaxCore 1000
! wb97x-d3 def2-TZVPP def2-TZVPP/C RIJCOSX SARC/J Opt CPCM(WATER)
%CPCM SURFACETYPE VDW_GAUSSIAN END
* xyzfile 5 1 AuT3EPyPCl5.xyz
